Minimize
    r
Subject to
    x111 + x121 = 2
    x112 + x122 = 3
    x113 + x123 = 4
    x211 + x221 = 3
    x212 + x222 = 4
    x213 + x223 = 5
    x311 + x321 = 4
    x312 + x322 = 5
    x313 + x323 = 6
     
    u111 + u121 = 2
    u112 + u122 = 2
    u113 + u123 = 2
    u211 + u221 = 2
    u212 + u222 = 2
    u213 + u223 = 2
    u311 + u321 = 2
    u312 + u322 = 2
    u313 + u323 = 2
     
    x111 - 1.0 u111 = 0
    x121 - 1.0 u121 = 0
    x112 - 1.5 u112 = 0
    x122 - 1.5 u122 = 0
    x113 - 2.0 u113 = 0
    x123 - 2.0 u123 = 0
    x211 - 1.5 u211 = 0
    x221 - 1.5 u221 = 0
    x212 - 2.0 u212 = 0
    x222 - 2.0 u222 = 0
    x213 - 2.5 u213 = 0
    x223 - 2.5 u223 = 0
    x311 - 2.0 u311 = 0
    x321 - 2.0 u321 = 0
    x312 - 2.5 u312 = 0
    x322 - 2.5 u322 = 0
    x313 - 3.0 u313 = 0
    x323 - 3.0 u323 = 0
     
    x111 u111 + x121 u121 = 2
    x112 u112 + x122 u122 = 3
    x113 u113 + x123 u123 = 4
    x211 u211 + x221 u221 = 3
    x212 u212 + x222 u222 = 4
    x213 u213 + x223 u223 = 5
    x311 u311 + x321 u321 = 4
    x312 u312 + x322 u322 = 5
    x313 u313 + x323 u323 = 6
     
    x111 u111 + x121 u121 - r <= 0
    x112 u112 + x122 u122 - r <= 0
    x113 u113 + x123 u123 - r <= 0
    x211 u211 + x221 u221 - r <= 0
    x212 u212 + x222 u222 - r <= 0
    x213 u213 + x223 u223 - r <= 0
    x311 u311 + x321 u321 - r <= 0
    x312 u312 + x322 u322 - r <= 0
    x313 u313 + x323 u323 - r <= 0
     
    x111 u111 + x211 u211 + x311 u311 - r <= 0
    x112 u112 + x212 u212 + x312 u312 - r <= 0
    x113 u113 + x213 u213 + x313 u313 - r <= 0
    x121 u121 + x221 u221 + x321 u321 - r <= 0
    x122 u122 + x222 u222 + x322 u322 - r <= 0
    x123 u123 + x223 u223 + x323 u323 - r <= 0
     
Bounds
    x111 >= 0
    x112 >= 0
    x113 >= 0
    x121 >= 0
    x122 >= 0
    x123 >= 0
    x211 >= 0
    x212 >= 0
    x213 >= 0
    x221 >= 0
    x222 >= 0
    x223 >= 0
    x311 >= 0
    x312 >= 0
    x313 >= 0
    x321 >= 0
    x322 >= 0
    x323 >= 0
    r >= 0
Binary
    u111 u112 u113 u121 u122 u123 u211 u212 u213 u221 u222 u223 u311 u312 u313 u321 u322 u323
End